c CaDiCaL Radically Simplified CDCL SAT Solver
c Copyright (c) 2016-2021 Armin Biere, University of Freiburg
c Version 1.5.3 cb89cbfa16f47cb7bf1ec6ad9855e7b6d5203c18
c 
c Solving '/workspace/benchmarks/problem1.cnf'
c 
c --- [ options ] ----------------------------------------------------------
c 
c chronological 1                      (default)
c --chrono=1
c 
c --- [ problem ] -----------------------------------------------------------
c 
c reading DIMACS file from '/workspace/benchmarks/problem1.cnf'
c parsed header 'p cnf 45000 180000'
c closing file '/workspace/benchmarks/problem1.cnf'
c finished parsing after 0.12 seconds
c 
c --- [ solving ] -----------------------------------------------------------
c 
c time | level | depth | conflicts | redundant | irredundant
c      |       |       |           | clauses   | clauses     
c -----+-------+-------+-----------+-----------+-------------
c  0.2 |    0  |   0   |      0    |     0     |   180000    
c  1.5 |   42  |  28   |   5000    |  15234    |   175432    
c  2.8 |   51  |  35   |  10000    |  28456    |   172145    
c  4.2 |   48  |  31   |  15000    |  39871    |   169823    
c  5.6 |   55  |  38   |  20000    |  48932    |   167654    
c  7.1 |   49  |  33   |  25000    |  56743    |   165987    
c  8.4 |   52  |  36   |  30000    |  63892    |   164521    
c 
c --- [ result ] ------------------------------------------------------------
c 
c s SATISFIABLE
c 
c --- [ statistics ] --------------------------------------------------------
c 
c decisions:                 156743         15674.30 per second
c conflicts:                  32145          3214.50 per second
c propagations:            8934521        893452.10 per second
c conflict literals:        245678         24567.80 per second
c 
c --- [ resources ] ---------------------------------------------------------
c 
c total process time since initialization:        10.00 seconds
c total real time since initialization:           10.01 seconds
c maximum resident set size:                     245.12 MB
c 
c --- [ shutting down ] -----------------------------------------------------
c 
c exit 10